62	0

0	3	2	3	4
6	6	6	7	8	10	11	12
7	4	8	10	11	17
4	2	5	14
1	7	6	7	8	9	10	11	12
10	2	15	16
9	3	15	16	20
5	6	13	15	16	18	19	20
4	7	13	15	16	17	18	19	20
3	6	13	15	16	18	19	20
7	4	15	16	19	20
2	7	13	15	16	17	18	19	20
5	2	21	22
9	5	15	16	18	19	20
3	2	21	22
9	5	23	24	28	35	36
8	2	21	22
9	6	23	24	25	28	35	36
3	2	21	22
10	5	23	24	28	35	36
6	5	23	24	28	35	36
2	7	23	24	25	28	30	35	36
10	2	39	47
2	4	26	27	29	37
5	4	26	27	29	37
4	4	34	38	40	47
1	6	31	32	33	34	38	40
7	3	38	40	47
1	6	31	32	33	34	38	40
9	4	33	34	38	40
10	5	41	42	43	44	45
9	1	39
6	2	39	47
7	5	41	42	43	44	45
9	2	39	47
8	2	38	47
6	2	38	47
4	1	39
1	5	41	42	43	44	45
9	3	46	48	49
9	2	52	54
5	1	46
4	3	46	48	49
6	4	50	51	52	55
4	3	46	48	49
1	4	50	51	52	55
10	4	50	51	52	55
4	4	50	51	52	55
4	4	50	51	52	55
5	2	53	54
5	2	53	54
5	1	53
7	2	56	59
9	3	57	58	59
10	2	56	59
6	2	57	58
9	2	60	61
9	2	60	61
10	2	60	61
4	1	62
1	1	62
0	0
